This is Ipopt version 3.13.4, running with linear solver mumps.
NOTE: Other linear solvers might be more efficient (see Ipopt documentation).

Number of nonzeros in equality constraint Jacobian...:     1455
Number of nonzeros in inequality constraint Jacobian.:        0
Number of nonzeros in Lagrangian Hessian.............:        0

Total number of variables............................:       97
                     variables with only lower bounds:        0
                variables with lower and upper bounds:       91
                     variables with only upper bounds:        0
Total number of equality constraints.................:       15
Total number of inequality constraints...............:        0
        inequality constraints with only lower bounds:        0
   inequality constraints with lower and upper bounds:        0
        inequality constraints with only upper bounds:        0

iter    objective    inf_pr   inf_du lg(mu)  ||d||  lg(rg) alpha_du alpha_pr  ls
   0  1.8403958e+01 1.93e-08 9.69e-01   0.0 0.00e+00    -  0.00e+00 0.00e+00   0
   1  1.7857429e+01 4.11e-01 3.55e+00  -1.5 5.47e-01    -  8.67e-01 1.00e+00f  1
   2  1.5749738e+01 3.00e+00 1.49e+02  -1.4 5.42e+00    -  6.65e-01 3.89e-01f  1
   3  1.4679589e+01 2.16e+00 1.65e+02  -1.3 2.42e+00    -  7.07e-01 4.42e-01f  1
   4  1.4690326e+01 4.26e+00 2.54e+01  -1.7 1.62e+00    -  6.81e-01 1.00e+00h  1
   5  1.4703971e+01 3.00e+00 1.39e+02  -1.5 1.05e+00    -  6.46e-01 1.00e+00h  1
   6  1.4686551e+01 2.42e+00 5.27e+02  -1.5 2.22e+00    -  1.80e-01 7.41e-02h  2
   7r 1.4686551e+01 2.42e+00 9.99e+02   0.2 0.00e+00    -  0.00e+00 3.40e-07R 19
   8r 1.4697014e+01 2.91e+00 1.38e+03   0.7 2.73e+02    -  1.00e+00 3.75e-03f  1
   9r 1.4839604e+01 3.82e+00 9.70e+02   2.4 7.70e+01    -  3.34e-02 1.91e-02f  1
iter    objective    inf_pr   inf_du lg(mu)  ||d||  lg(rg) alpha_du alpha_pr  ls
  10r 1.4841213e+01 3.75e+00 6.30e+02  -0.9 1.44e+00    -  5.82e-01 1.30e-02f  1
  11r 1.5124676e+01 9.00e-01 8.67e+04  -0.1 1.06e+00    -  1.00e+00 6.25e-01f  1
  12r 1.4673339e+01 1.54e+00 4.28e+03  -0.1 1.01e+00    -  4.89e-01 6.15e-01f  1
  13r 1.4811907e+01 2.08e+00 1.31e+08   0.4 9.28e-01    -  1.00e+00 3.86e-01f  1
  14  1.4670211e+01 2.21e+00 4.36e-02  -1.5 6.40e+00  -4.0 1.00e+00 2.21e-02h  1
  15  1.4670068e+01 3.34e+00 1.54e-02  -2.9 2.78e-01  -4.5 9.94e-01 1.00e+00h  1
  16  1.4668859e+01 2.23e+00 1.38e-02  -4.1 4.12e-01    -  9.50e-01 1.00e+00h  1
  17  1.4669236e+01 4.73e+00 2.67e-01  -3.3 1.41e+00    -  1.00e+00 1.00e+00H  1
  18  1.4669149e+01 2.11e+00 1.17e+01  -3.4 1.84e+00    -  5.99e-01 1.00e+00h  1
  19  1.4669149e+01 7.22e-01 2.44e+00  -3.4 1.45e+00    -  3.27e-01 4.19e-01h  2
iter    objective    inf_pr   inf_du lg(mu)  ||d||  lg(rg) alpha_du alpha_pr  ls
  20  1.4669159e+01 5.82e-01 4.63e+01  -3.4 9.98e-01    -  1.90e-01 3.58e-01h  1
  21  1.4669160e+01 5.54e-01 5.23e+01  -3.4 1.23e+00    -  6.36e-01 5.09e-02h  1
  22  1.4669164e+01 5.14e-01 5.24e+01  -3.4 1.06e+00    -  5.25e-01 7.05e-02h  1
  23  1.4669174e+01 3.84e-01 4.95e+01  -3.4 9.63e-01    -  8.62e-01 2.26e-01h  1
  24  1.4669168e+01 3.78e-01 4.79e+01  -9.4 7.25e-01    -  3.94e-01 1.37e-02h  1
  25  1.4671739e+01 2.92e-01 4.13e+01  -1.9 9.27e-01    -  1.00e+00 2.01e-01f  1
  26  1.4672527e+01 2.25e-01 3.20e+01  -2.2 5.60e-01    -  7.30e-01 2.09e-01h  1
  27  1.4671813e+01 2.26e-01 1.99e+00  -2.5 1.04e+00    -  9.43e-01 1.00e+00h  1
  28  1.4671320e+01 1.96e-01 1.22e+01  -2.6 5.35e-01    -  5.88e-01 9.12e-01h  1
  29  1.4669747e+01 1.23e-01 7.87e+00  -3.0 4.34e-01    -  1.00e+00 1.00e+00h  1
iter    objective    inf_pr   inf_du lg(mu)  ||d||  lg(rg) alpha_du alpha_pr  ls
  30  1.4668840e+01 6.83e-02 7.37e-01  -4.2 9.33e-02    -  1.00e+00 1.00e+00h  1
  31  1.4668978e+01 1.24e-02 4.76e-01  -3.7 6.83e-02    -  1.00e+00 1.00e+00h  1
  32  1.4668787e+01 1.91e-02 9.16e-02  -5.1 5.47e-03    -  9.57e-01 1.00e+00h  1
  33  1.4668781e+01 1.25e-02 1.02e-01  -5.9 5.54e-03    -  1.00e+00 1.00e+00h  1
  34  1.4668780e+01 1.65e-02 6.41e-02  -6.4 5.59e-03    -  1.00e+00 1.00e+00h  1
  35  1.4668780e+01 1.26e-02 1.12e-01  -7.3 4.99e-03    -  1.00e+00 1.00e+00h  1
  36  1.4668780e+01 1.31e-02 1.82e-01  -7.8 1.18e-02    -  1.00e+00 1.00e+00h  1
  37  1.4668780e+01 1.27e-02 5.65e-01  -7.9 1.01e-02    -  1.00e+00 1.00e+00h  1
  38  1.4668780e+01 8.67e-03 3.61e-01  -7.9 5.90e-03    -  1.00e+00 1.00e+00h  1
  39  1.4668780e+01 8.59e-03 3.62e-01  -5.9 1.81e-02    -  1.00e+00 9.14e-03h  1
iter    objective    inf_pr   inf_du lg(mu)  ||d||  lg(rg) alpha_du alpha_pr  ls
  40  1.4668834e+01 4.50e-03 1.73e-01  -4.0 3.59e-02    -  1.00e+00 4.91e-01f  1
  41  1.4668794e+01 3.36e-03 2.47e-03  -4.9 5.33e-02    -  9.67e-01 1.00e+00h  1
  42  1.4668780e+01 1.22e-05 5.28e-05 -10.8 7.20e-04    -  9.88e-01 9.97e-01h  1
  43  1.4668780e+01 1.12e-08 3.46e-09 -11.0 8.00e-05    -  1.00e+00 1.00e+00h  1

Number of Iterations....: 43

                                   (scaled)                 (unscaled)
Objective...............:   1.4668779735065618e+01    1.4668779735065618e+01
Dual infeasibility......:   3.4615937261550599e-09    3.4615937261550599e-09
Constraint violation....:   1.1224048471897285e-08    1.1224048471897285e-08
Complementarity.........:   7.1919463194995566e-11    7.1919463194995566e-11
Overall NLP error.......:   1.1224048471897285e-08    1.1224048471897285e-08


Number of objective function evaluations             = 70
Number of objective gradient evaluations             = 39
Number of equality constraint evaluations            = 70
Number of inequality constraint evaluations          = 0
Number of equality constraint Jacobian evaluations   = 45
Number of inequality constraint Jacobian evaluations = 0
Number of Lagrangian Hessian evaluations             = 0
Total CPU secs in IPOPT (w/o function evaluations)   =      3.516
Total CPU secs in NLP function evaluations           =    687.558

EXIT: Optimal Solution Found.
